n = 10; 

m=14; 


63	17	52	49	54	50	49	73	16	49
92	95	85	59	79	71	90	79	96	88
21	78	1	31	10	53	5	18	65	1
75	73	37	69	5	31	36	57	43	61
60	68	51	72	53	22	29	33	31	74
26	9	30	43	45	29	15	19	50	42
58	8	25	7	48	62	52	21	56	19
1	33	62	62	73	17	3	37	8	67
38	41	65	5	48	14	32	7	39	48
29	73	6	39	40	72	69	70	4	67
59	26	57	60	67	15	9	9	27	22
8	15	58	35	30	57	61	37	52	69
17	16	37	33	78	54	18	80	19	46
21	78	1	31	10	53	5	18	65	1


 

 
